data;


param FN:= 3;
param D:= 100;
param U_Original:=
         1         1       -8.980898e-02
         2         1       -2.227181e-01
         3         1       -1.092816e+00
         4         1        6.918569e-01
         5         1        4.097203e-01
         6         1        8.576573e-01
         7         1       -1.758974e+00
         8         1       -2.196258e+00
         9         1        6.454724e-01
        10         1       -3.073566e-01
        11         1       -8.989259e-01
        12         1        5.418373e-01
        13         1        4.686324e-01
        14         1       -2.983277e-01
        15         1       -1.651756e+00
        16         1        3.515757e-01
        17         1        2.200562e-01
        18         1       -6.209550e-01
        19         1       -7.222985e-01
        20         1        3.317050e-01
        21         1        3.737678e-01
        22         1       -1.353188e+00
        23         1       -7.461640e-01
        24         1       -9.501129e-01
        25         1        5.683796e-01
        26         1       -1.191164e-01
        27         1       -5.307391e-01
        28         1        1.803350e-01
        29         1       -1.201839e+00
        30         1       -7.014965e-02
        31         1        2.150255e+00
        32         1        9.619413e-01
        33         1        9.732189e-01
        34         1        4.870692e-01
        35         1        4.711971e-01
        36         1        1.247262e+00
        37         1        1.090471e+00
        38         1       -1.710419e-01
        39         1        4.553504e-01
        40         1        5.740902e-01
        41         1       -7.478965e-01
        42         1        1.076630e+00
        43         1        1.202914e+00
        44         1        5.614995e-01
        45         1        7.285761e-01
        46         1        4.818048e-01
        47         1        1.998498e+00
        48         1        7.099278e-01
        49         1        2.490657e+00
        50         1       -3.404207e-01
        51         1       -2.962244e-01
        52         1       -6.951635e-01
        53         1       -8.680785e-01
        54         1        2.065360e-01
        55         1       -3.733603e-04
        56         1        1.045332e+00
        57         1        6.887632e-01
        58         1        1.853774e+00
        59         1       -1.031537e+00
        60         1       -7.705869e-01
        61         1       -1.991344e-01
        62         1        1.213031e-01
        63         1        7.414566e-01
        64         1       -1.125182e+00
        65         1        9.901187e-01
        66         1        9.159277e-01
        67         1       -8.754269e-01
        68         1       -4.505586e-03
        69         1       -9.154414e-02
        70         1        6.358945e-01
        71         1       -4.529312e-01
        72         1        1.313813e-01
        73         1       -4.218670e-01
        74         1       -1.273670e+00
        75         1       -9.300720e-01
        76         1       -2.093801e-01
        77         1        5.596212e-01
        78         1        6.397757e-01
        79         1       -1.771984e+00
        80         1        3.304817e+00
        81         1       -3.906494e-01
        82         1        8.227008e-01
        83         1        1.008850e+00
        84         1       -3.240011e-01
        85         1        8.864989e-01
        86         1       -1.737956e+00
        87         1       -1.156352e+00
        88         1       -1.284772e+00
        89         1        2.522304e-01
        90         1        4.646311e-01
        91         1        1.758833e+00
        92         1        1.234200e+00
        93         1        7.907359e-01
        94         1       -3.104841e-01
        95         1       -1.908729e+00
        96         1        2.781655e+00
        97         1        1.255700e+00
        98         1       -1.031745e+00
        99         1        9.776821e-01
       100         1       -1.575814e+00
         1         2        5.525968e-01
         2         2        1.794921e+00
         3         2        1.601372e-01
         4         2        6.067704e-01
         5         2       -4.098970e-01
         6         2       -1.259000e+00
         7         2       -1.236527e+00
         8         2        7.248563e-01
         9         2        4.225842e-01
        10         2       -1.397663e-02
        11         2        6.690096e-01
        12         2       -1.392282e+00
        13         2        2.952108e-01
        14         2        1.521055e+00
        15         2       -1.242408e+00
        16         2       -1.370052e+00
        17         2        5.811068e-01
        18         2        1.824943e+00
        19         2       -1.236750e+00
        20         2        3.984188e-02
        21         2        5.126524e-01
        22         2        6.857785e-01
        23         2       -3.563317e-01
        24         2        1.469167e+00
        25         2        1.062581e+00
        26         2        6.400055e-01
        27         2       -2.120855e+00
        28         2        2.334442e+00
        29         2       -9.549000e-01
        30         2        3.082024e-02
        31         2       -2.435172e+00
        32         2       -2.947354e-01
        33         2        1.520227e+00
        34         2       -1.043348e+00
        35         2       -1.101717e+00
        36         2        1.678064e+00
        37         2        7.685029e-01
        38         2       -1.785552e-01
        39         2       -1.044673e+00
        40         2       -1.167125e+00
        41         2        4.163193e-01
        42         2        2.623380e-01
        43         2       -1.751169e+00
        44         2       -1.089710e+00
        45         2       -3.688436e-01
        46         2       -7.003728e-01
        47         2        4.202138e-01
        48         2       -2.289018e+00
        49         2       -3.636149e-01
        50         2       -4.607287e-01
        51         2       -1.022345e+00
        52         2       -2.464550e-01
        53         2       -1.616305e-02
        54         2       -1.462035e+00
        55         2        3.718527e-01
        56         2        9.131272e-01
        57         2        2.075394e+00
        58         2        4.729138e-01
        59         2       -1.992555e+00
        60         2        3.228693e-01
        61         2       -4.239602e-01
        62         2       -5.793821e-01
        63         2       -2.097035e-01
        64         2        1.576082e+00
        65         2       -3.779578e-01
        66         2        9.669789e-01
        67         2       -1.553366e+00
        68         2       -6.700707e-01
        69         2       -3.575131e-02
        70         2        3.399818e-01
        71         2       -6.144255e-01
        72         2        1.922054e-01
        73         2       -4.924460e-01
        74         2        1.491839e-01
        75         2       -1.220510e+00
        76         2       -7.474316e-01
        77         2       -2.652480e-01
        78         2       -1.807908e+00
        79         2       -1.811280e+00
        80         2       -8.427382e-01
        81         2       -2.009449e-01
        82         2       -1.111381e+00
        83         2       -5.302077e-01
        84         2        1.937818e-01
        85         2       -6.500007e-01
        86         2        4.357692e-02
        87         2        2.127134e-01
        88         2       -2.515277e-01
        89         2        8.430569e-01
        90         2       -1.342154e+00
        91         2        1.119509e+00
        92         2        5.115297e-01
        93         2       -1.184215e+00
        94         2        2.507749e-01
        95         2       -1.340718e-01
        96         2        1.744693e+00
        97         2       -1.740835e+00
        98         2       -1.785603e-01
        99         2        1.183474e+00
       100         2        8.278314e-01
         1         3       -5.159201e-01
         2         3        9.621839e-01
         3         3       -1.635837e+00
         4         3        1.513338e+00
         5         3        4.587899e-01
         6         3        2.311351e-01
         7         3       -1.148841e+00
         8         3        3.333351e-01
         9         3       -8.351399e-01
        10         3       -3.352293e-01
        11         3       -1.491780e+00
        12         3        1.844845e+00
        13         3        1.444198e-01
        14         3        2.766938e-01
        15         3        8.573314e-01
        16         3        8.440155e-01
        17         3        2.513741e-01
        18         3        1.481661e+00
        19         3        2.042777e+00
        20         3       -1.970030e+00
        21         3        1.672562e-01
        22         3       -7.158699e-01
        23         3        8.141631e-01
        24         3       -2.375465e+00
        25         3        4.848652e-01
        26         3        1.818403e-01
        27         3       -2.271789e-05
        28         3       -5.018107e-01
        29         3        9.202914e-01
        30         3        9.503231e-01
        31         3       -6.418861e-01
        32         3       -5.093487e-01
        33         3       -3.810925e-01
        34         3        5.571207e-01
        35         3       -6.860128e-01
        36         3       -2.538014e+00
        37         3       -7.120619e-02
        38         3        7.110357e-01
        39         3       -9.511164e-01
        40         3       -1.368171e+00
        41         3       -2.131519e-01
        42         3       -8.379834e-02
        43         3        1.048039e+00
        44         3        3.265170e-02
        45         3        5.091798e-01
        46         3       -1.183555e+00
        47         3        3.685326e-01
        48         3        7.624737e-01
        49         3       -2.147047e-01
        50         3       -4.162021e-01
        51         3        1.577922e+00
        52         3        3.269391e-01
        53         3        7.157591e-02
        54         3        8.345291e-01
        55         3       -4.983193e-01
        56         3       -4.039820e-02
        57         3        6.586317e-01
        58         3       -8.079086e-01
        59         3       -4.593976e-01
        60         3       -1.858455e-02
        61         3       -8.781458e-01
        62         3       -9.102769e-01
        63         3        1.936621e-01
        64         3        3.163679e-01
        65         3       -3.829246e-01
        66         3        4.777467e-01
        67         3        1.081003e+00
        68         3       -6.965952e-01
        69         3       -4.302713e-01
        70         3        5.319440e-01
        71         3        1.869920e-01
        72         3        1.857852e+00
        73         3       -8.542624e-01
        74         3        1.012753e+00
        75         3       -2.366505e+00
        76         3       -2.235364e-01
        77         3       -1.168250e+00
        78         3       -7.055033e-01
        79         3        1.462295e+00
        80         3       -5.571677e-01
        81         3        1.066402e+00
        82         3        1.504693e-01
        83         3        1.229119e+00
        84         3        4.095716e-01
        85         3       -1.148207e+00
        86         3        8.786859e-01
        87         3        1.013974e+00
        88         3       -1.474039e+00
        89         3        1.962777e+00
        90         3       -7.308593e-01
        91         3        1.310146e+00
        92         3       -1.834311e+00
        93         3        4.109796e-01
        94         3       -9.366757e-01
        95         3        6.592585e-01
        96         3       -3.542949e-01
        97         3        1.157413e+00
        98         3        5.679923e-01
        99         3       -1.359428e+00
       100         3        1.986922e+00
         1         4        3.096884e-01
         2         4        6.987746e-01
         3         4       -7.618256e-01
         4         4       -2.568801e-01
         5         4       -2.268841e-01
         6         4        1.941219e+00
         7         4       -9.374032e-01
         8         4        7.096877e-01
         9         4        2.036587e+00
        10         4        9.418273e-01
        11         4       -2.005462e-02
        12         4        3.424997e-01
        13         4        1.776322e+00
        14         4       -8.565946e-01
        15         4       -2.803881e-01
        16         4        1.345748e+00
        17         4       -8.709431e-01
        18         4       -1.187807e+00
        19         4       -7.155152e-01
        20         4        1.101081e+00
        21         4       -2.383516e-01
        22         4       -8.806369e-01
        23         4        1.842720e+00
        24         4        6.941616e-01
        25         4        1.772284e-02
        26         4       -9.277102e-01
        27         4        4.204263e-01
        28         4        1.618895e-01
        29         4        1.497732e+00
        30         4       -2.605665e-01
        31         4        1.582202e+00
        32         4       -6.169242e-01
        33         4        3.621970e-01
        34         4        8.151949e-01
        35         4       -5.876018e-01
        36         4       -1.617937e+00
        37         4       -2.781329e-01
        38         4        1.369669e+00
        39         4        1.229392e+00
        40         4        7.728914e-02
        41         4        1.483216e-01
        42         4       -5.424509e-01
        43         4       -1.344936e+00
        44         4        1.183976e+00
        45         4       -3.477647e-01
        46         4       -2.048327e-01
        47         4       -1.074606e+00
        48         4        4.853350e-01
        49         4        1.288213e+00
        50         4        1.766326e+00
        51         4       -7.621019e-01
        52         4       -1.122015e+00
        53         4       -9.723375e-01
        54         4        1.374020e+00
        55         4        9.671418e-01
        56         4       -2.250744e-01
        57         4        1.208374e+00
        58         4       -6.023543e-01
        59         4        1.829139e-01
        60         4       -2.530179e-01
        61         4       -4.304138e-01
        62         4        1.032406e+00
        63         4       -5.665046e-01
        64         4        6.592413e-01
        65         4        7.856672e-01
        66         4        1.047083e+00
        67         4       -1.894733e-01
        68         4        1.112221e+00
        69         4        1.437125e+00
        70         4        1.591798e+00
        71         4       -5.782458e-01
        72         4        2.420336e+00
        73         4        1.082886e+00
        74         4       -1.244771e+00
        75         4       -6.326186e-01
        76         4       -2.691950e-01
        77         4       -1.142981e+00
        78         4       -1.354600e+00
        79         4       -1.602985e+00
        80         4       -5.351002e-01
        81         4       -3.893456e-02
        82         4        6.755312e-01
        83         4        4.294221e-01
        84         4       -1.666251e+00
        85         4        3.142546e-02
        86         4       -2.737020e-01
        87         4        5.663595e-01
        88         4       -2.292299e+00
        89         4        1.327156e+00
        90         4       -8.233365e-01
        91         4       -4.342885e-01
        92         4       -1.212475e+00
        93         4       -1.009464e+00
        94         4        6.675725e-01
        95         4        5.740001e-01
        96         4       -2.667005e-01
        97         4        1.758475e-01
        98         4       -8.361360e-01
        99         4       -6.241555e-01
       100         4        2.422239e-01
         1         5       -3.338621e-01
         2         5       -2.618594e+00
         3         5        7.508371e-01
         4         5        1.231256e+00
         5         5        5.093887e-03
         6         5       -9.091657e-01
         7         5        1.559904e+00
         8         5       -9.037320e-02
         9         5        7.820350e-01
        10         5        9.873251e-02
        11         5       -8.072346e-01
        12         5       -9.942035e-01
        13         5       -6.663866e-01
        14         5        7.907123e-01
        15         5        3.597876e-01
        16         5       -3.381396e-02
        17         5        1.202699e+00
        18         5        7.501682e-01
        19         5        5.092389e-01
        20         5       -3.472689e-01
        21         5        1.005202e+00
        22         5       -6.405918e-01
        23         5       -1.684391e+00
        24         5       -4.389624e-01
        25         5        8.005952e-02
        26         5        4.258050e-01
        27         5        2.993665e-01
        28         5       -1.660869e-01
        29         5        1.011859e+00
        30         5        9.593345e-01
        31         5       -9.830828e-01
        32         5       -1.030386e+00
        33         5       -1.449869e+00
        34         5       -6.603274e-02
        35         5       -8.715712e-01
        36         5       -1.318605e+00
        37         5       -7.868535e-01
        38         5       -1.600017e+00
        39         5        9.467907e-01
        40         5       -1.137262e-01
        41         5       -1.436090e+00
        42         5        8.296446e-01
        43         5        2.655385e-02
        44         5       -5.621877e-01
        45         5       -6.906545e-01
        46         5        3.385947e+00
        47         5       -1.288189e+00
        48         5        9.513078e-01
        49         5       -7.060500e-01
        50         5       -1.167703e+00
        51         5        4.507162e-01
        52         5       -6.792925e-01
        53         5       -2.331327e+00
        54         5       -1.368434e+00
        55         5       -6.970852e-01
        56         5        1.032412e+00
        57         5        9.506061e-01
        58         5       -6.727485e-01
        59         5       -1.892940e-01
        60         5       -1.023062e+00
        61         5       -5.978420e-01
        62         5        7.548396e-01
        63         5       -2.288101e-01
        64         5        3.056486e-01
        65         5        5.720505e-01
        66         5        3.874913e-01
        67         5       -4.494113e-01
        68         5        1.669615e+00
        69         5       -4.967556e-01
        70         5        1.179759e-01
        71         5       -1.084484e+00
        72         5       -5.489477e-01
        73         5        2.362659e-01
        74         5       -3.543750e-01
        75         5       -2.913627e-01
        76         5       -1.151694e+00
        77         5       -1.123585e+00
        78         5        3.842816e-02
        79         5        8.699202e-01
        80         5        6.167386e-01
        81         5       -1.432746e+00
        82         5        1.097411e+00
        83         5        8.055098e-01
        84         5        1.975864e+00
        85         5        1.395299e+00
        86         5       -1.611195e+00
        87         5        8.259427e-01
        88         5       -3.750180e-01
        89         5       -1.397441e+00
        90         5        1.180463e+00
        91         5        9.140496e-02
        92         5       -1.242489e-01
        93         5       -2.770560e-02
        94         5       -7.247168e-01
        95         5        6.554093e-01
        96         5       -1.096948e+00
        97         5       -2.826995e-01
        98         5        6.193269e-01
        99         5        3.492225e-01
       100         5        1.068060e+00
;
param X_Original:=
    1       -4.315759e-01
    2       -7.927429e-01
    3       -1.970845e-01
    4       -8.878056e-01
    5        2.576348e-01
    6       -1.505681e+00
    7       -5.841762e-01
    8       -2.465273e+00
    9        1.040527e+00
   10       -6.390897e-01
   11        1.236043e+00
   12        8.000071e-01
   13        1.954749e-01
   14       -1.285234e+00
   15        1.582293e+00
   16       -1.796484e-01
   17        8.517899e-01
   18        7.909992e-01
   19        2.451339e-01
   20        1.010112e+00
   21       -1.244264e+00
   22       -2.260460e+00
   23       -2.692757e+00
   24        2.939216e+00
   25       -1.363281e+00
   26        9.813718e-01
   27       -3.734019e-01
   28       -1.599973e+00
   29        2.267089e+00
   30        2.819526e-01
   31       -6.321217e-01
   32       -5.075479e-01
   33       -1.921069e-01
   34        2.002248e-01
   35       -3.136547e-01
   36       -5.907588e-01
   37       -1.951502e+00
   38       -8.360380e-01
   39       -1.227718e+00
   40       -1.742105e+00
   41        2.143123e+00
   42        4.436847e-01
   43       -8.107892e-01
   44       -1.433352e+00
   45       -5.866372e-01
   46        2.629598e-01
   47        6.109277e-01
   48       -3.786718e-01
   49       -7.301445e-01
   50       -5.488573e-01
   51       -1.233323e+00
   52        1.821778e+00
   53       -4.171537e-01
   54       -4.947224e-01
   55        1.508510e-02
   56       -6.008823e-01
   57       -1.862061e-01
   58       -1.075335e+00
   59       -1.395030e-01
   60       -5.346627e-02
   61       -3.373197e-01
   62       -7.202241e-01
   63        9.871932e-01
   64       -9.181139e-01
   65       -2.772019e-01
   66       -2.216290e+00
   67       -8.641348e-01
   68        5.043310e-01
   69        4.745150e-02
   70        1.359466e+00
   71        9.819247e-01
   72       -8.643492e-01
   73        3.157796e-02
   74        2.810972e+00
   75        9.937530e-02
   76        1.051947e+00
   77        1.718425e+00
   78       -1.759872e+00
   79       -1.680325e-01
   80        1.670751e+00
   81       -2.954254e-01
   82       -1.455457e+00
   83       -4.069152e-01
   84       -1.552079e+00
   85       -3.746313e+00
   86        1.868941e-01
   87        1.998256e-01
   88       -3.319499e+00
   89        2.785074e-01
   90        7.219196e-01
   91       -7.584777e-01
   92       -6.564477e-01
   93        7.873645e-03
   94        1.554721e+00
   95       -8.402283e-01
   96        2.803256e-02
   97       -1.744753e-01
   98        1.927219e+00
   99        7.302829e-01
  100       -1.188403e+00
;
param outliervec_original :=
    1    1
    2    1
    3    1
    4    1
    5    1
    6    1
    7    1
    8    1
    9    1
   10    1
   11    1
   12    1
   13    1
   14    1
   15    1
   16    1
   17    1
   18    1
   19    1
   20    0
   21    1
   22    1
   23    1
   24    1
   25    1
   26    1
   27    1
   28    1
   29    0
   30    1
   31    1
   32    1
   33    0
   34    1
   35    1
   36    1
   37    1
   38    1
   39    1
   40    0
   41    1
   42    1
   43    1
   44    1
   45    1
   46    1
   47    1
   48    1
   49    1
   50    1
   51    1
   52    0
   53    1
   54    0
   55    1
   56    1
   57    1
   58    1
   59    1
   60    1
   61    1
   62    1
   63    1
   64    1
   65    1
   66    0
   67    1
   68    1
   69    1
   70    1
   71    1
   72    1
   73    1
   74    1
   75    1
   76    0
   77    1
   78    1
   79    1
   80    1
   81    1
   82    1
   83    1
   84    0
   85    0
   86    1
   87    1
   88    1
   89    1
   90    1
   91    1
   92    1
   93    1
   94    1
   95    1
   96    1
   97    1
   98    1
   99    1
  100    1
;
param d:= 55;
param r:=5;
param p:=0.900000;
param M:=1000;
param U:=
         1         1       -1.092816e+00
         2         1        6.918569e-01
         3         1        4.097203e-01
         4         1        8.576573e-01
         5         1       -1.758974e+00
         6         1       -3.073566e-01
         7         1       -8.989259e-01
         8         1        4.686324e-01
         9         1       -1.651756e+00
        10         1       -6.209550e-01
        11         1       -7.222985e-01
        12         1        3.737678e-01
        13         1       -9.501129e-01
        14         1       -1.191164e-01
        15         1       -5.307391e-01
        16         1       -7.014965e-02
        17         1        9.619413e-01
        18         1        4.711971e-01
        19         1        4.553504e-01
        20         1        5.740902e-01
        21         1       -7.478965e-01
        22         1        1.202914e+00
        23         1        5.614995e-01
        24         1        7.285761e-01
        25         1        1.998498e+00
        26         1       -2.962244e-01
        27         1       -6.951635e-01
        28         1        2.065360e-01
        29         1       -3.733603e-04
        30         1        1.045332e+00
        31         1        6.887632e-01
        32         1        1.853774e+00
        33         1       -1.031537e+00
        34         1       -1.991344e-01
        35         1        1.213031e-01
        36         1        9.159277e-01
        37         1       -9.154414e-02
        38         1       -4.529312e-01
        39         1        1.313813e-01
        40         1       -4.218670e-01
        41         1       -1.273670e+00
        42         1       -9.300720e-01
        43         1       -2.093801e-01
        44         1        5.596212e-01
        45         1        6.397757e-01
        46         1       -1.771984e+00
        47         1        8.227008e-01
        48         1       -3.240011e-01
        49         1        8.864989e-01
        50         1       -1.156352e+00
        51         1        1.758833e+00
        52         1        1.234200e+00
        53         1       -3.104841e-01
        54         1        2.781655e+00
        55         1       -1.031745e+00
         1         2        1.601372e-01
         2         2        6.067704e-01
         3         2       -4.098970e-01
         4         2       -1.259000e+00
         5         2       -1.236527e+00
         6         2       -1.397663e-02
         7         2        6.690096e-01
         8         2        2.952108e-01
         9         2       -1.242408e+00
        10         2        1.824943e+00
        11         2       -1.236750e+00
        12         2        5.126524e-01
        13         2        1.469167e+00
        14         2        6.400055e-01
        15         2       -2.120855e+00
        16         2        3.082024e-02
        17         2       -2.947354e-01
        18         2       -1.101717e+00
        19         2       -1.044673e+00
        20         2       -1.167125e+00
        21         2        4.163193e-01
        22         2       -1.751169e+00
        23         2       -1.089710e+00
        24         2       -3.688436e-01
        25         2        4.202138e-01
        26         2       -1.022345e+00
        27         2       -2.464550e-01
        28         2       -1.462035e+00
        29         2        3.718527e-01
        30         2        9.131272e-01
        31         2        2.075394e+00
        32         2        4.729138e-01
        33         2       -1.992555e+00
        34         2       -4.239602e-01
        35         2       -5.793821e-01
        36         2        9.669789e-01
        37         2       -3.575131e-02
        38         2       -6.144255e-01
        39         2        1.922054e-01
        40         2       -4.924460e-01
        41         2        1.491839e-01
        42         2       -1.220510e+00
        43         2       -7.474316e-01
        44         2       -2.652480e-01
        45         2       -1.807908e+00
        46         2       -1.811280e+00
        47         2       -1.111381e+00
        48         2        1.937818e-01
        49         2       -6.500007e-01
        50         2        2.127134e-01
        51         2        1.119509e+00
        52         2        5.115297e-01
        53         2        2.507749e-01
        54         2        1.744693e+00
        55         2       -1.785603e-01
         1         3       -1.635837e+00
         2         3        1.513338e+00
         3         3        4.587899e-01
         4         3        2.311351e-01
         5         3       -1.148841e+00
         6         3       -3.352293e-01
         7         3       -1.491780e+00
         8         3        1.444198e-01
         9         3        8.573314e-01
        10         3        1.481661e+00
        11         3        2.042777e+00
        12         3        1.672562e-01
        13         3       -2.375465e+00
        14         3        1.818403e-01
        15         3       -2.271789e-05
        16         3        9.503231e-01
        17         3       -5.093487e-01
        18         3       -6.860128e-01
        19         3       -9.511164e-01
        20         3       -1.368171e+00
        21         3       -2.131519e-01
        22         3        1.048039e+00
        23         3        3.265170e-02
        24         3        5.091798e-01
        25         3        3.685326e-01
        26         3        1.577922e+00
        27         3        3.269391e-01
        28         3        8.345291e-01
        29         3       -4.983193e-01
        30         3       -4.039820e-02
        31         3        6.586317e-01
        32         3       -8.079086e-01
        33         3       -4.593976e-01
        34         3       -8.781458e-01
        35         3       -9.102769e-01
        36         3        4.777467e-01
        37         3       -4.302713e-01
        38         3        1.869920e-01
        39         3        1.857852e+00
        40         3       -8.542624e-01
        41         3        1.012753e+00
        42         3       -2.366505e+00
        43         3       -2.235364e-01
        44         3       -1.168250e+00
        45         3       -7.055033e-01
        46         3        1.462295e+00
        47         3        1.504693e-01
        48         3        4.095716e-01
        49         3       -1.148207e+00
        50         3        1.013974e+00
        51         3        1.310146e+00
        52         3       -1.834311e+00
        53         3       -9.366757e-01
        54         3       -3.542949e-01
        55         3        5.679923e-01
         1         4       -7.618256e-01
         2         4       -2.568801e-01
         3         4       -2.268841e-01
         4         4        1.941219e+00
         5         4       -9.374032e-01
         6         4        9.418273e-01
         7         4       -2.005462e-02
         8         4        1.776322e+00
         9         4       -2.803881e-01
        10         4       -1.187807e+00
        11         4       -7.155152e-01
        12         4       -2.383516e-01
        13         4        6.941616e-01
        14         4       -9.277102e-01
        15         4        4.204263e-01
        16         4       -2.605665e-01
        17         4       -6.169242e-01
        18         4       -5.876018e-01
        19         4        1.229392e+00
        20         4        7.728914e-02
        21         4        1.483216e-01
        22         4       -1.344936e+00
        23         4        1.183976e+00
        24         4       -3.477647e-01
        25         4       -1.074606e+00
        26         4       -7.621019e-01
        27         4       -1.122015e+00
        28         4        1.374020e+00
        29         4        9.671418e-01
        30         4       -2.250744e-01
        31         4        1.208374e+00
        32         4       -6.023543e-01
        33         4        1.829139e-01
        34         4       -4.304138e-01
        35         4        1.032406e+00
        36         4        1.047083e+00
        37         4        1.437125e+00
        38         4       -5.782458e-01
        39         4        2.420336e+00
        40         4        1.082886e+00
        41         4       -1.244771e+00
        42         4       -6.326186e-01
        43         4       -2.691950e-01
        44         4       -1.142981e+00
        45         4       -1.354600e+00
        46         4       -1.602985e+00
        47         4        6.755312e-01
        48         4       -1.666251e+00
        49         4        3.142546e-02
        50         4        5.663595e-01
        51         4       -4.342885e-01
        52         4       -1.212475e+00
        53         4        6.675725e-01
        54         4       -2.667005e-01
        55         4       -8.361360e-01
         1         5        7.508371e-01
         2         5        1.231256e+00
         3         5        5.093887e-03
         4         5       -9.091657e-01
         5         5        1.559904e+00
         6         5        9.873251e-02
         7         5       -8.072346e-01
         8         5       -6.663866e-01
         9         5        3.597876e-01
        10         5        7.501682e-01
        11         5        5.092389e-01
        12         5        1.005202e+00
        13         5       -4.389624e-01
        14         5        4.258050e-01
        15         5        2.993665e-01
        16         5        9.593345e-01
        17         5       -1.030386e+00
        18         5       -8.715712e-01
        19         5        9.467907e-01
        20         5       -1.137262e-01
        21         5       -1.436090e+00
        22         5        2.655385e-02
        23         5       -5.621877e-01
        24         5       -6.906545e-01
        25         5       -1.288189e+00
        26         5        4.507162e-01
        27         5       -6.792925e-01
        28         5       -1.368434e+00
        29         5       -6.970852e-01
        30         5        1.032412e+00
        31         5        9.506061e-01
        32         5       -6.727485e-01
        33         5       -1.892940e-01
        34         5       -5.978420e-01
        35         5        7.548396e-01
        36         5        3.874913e-01
        37         5       -4.967556e-01
        38         5       -1.084484e+00
        39         5       -5.489477e-01
        40         5        2.362659e-01
        41         5       -3.543750e-01
        42         5       -2.913627e-01
        43         5       -1.151694e+00
        44         5       -1.123585e+00
        45         5        3.842816e-02
        46         5        8.699202e-01
        47         5        1.097411e+00
        48         5        1.975864e+00
        49         5        1.395299e+00
        50         5        8.259427e-01
        51         5        9.140496e-02
        52         5       -1.242489e-01
        53         5       -7.247168e-01
        54         5       -1.096948e+00
        55         5        6.193269e-01
;

param theta:=
    1       -3.111709e+00
    2        7.893244e-01
    3       -6.084362e-01
    4        4.690861e-01
    5       -8.514855e-01
;
param X_true:=
    1        3.525538e+00
    2       -3.763583e+00
    3       -1.988382e+00
    4       -2.118430e+00
    5        3.428430e+00
    6        1.507066e+00
    7        4.910855e+00
    8        8.756599e-02
    9        3.199608e+00
   10        1.275266e+00
   11       -7.407619e-01
   12       -1.827894e+00
   13        6.260835e+00
   14       -3.255361e-02
   15       -8.021315e-02
   16       -1.274686e+00
   17       -2.328049e+00
   18       -1.451951e+00
   19       -1.892298e+00
   20       -1.742105e+00
   21        4.077921e+00
   22       -6.416522e+00
   23       -1.593142e+00
   24       -2.443107e+00
   25       -5.518495e+00
   26       -1.586533e+00
   27        1.821778e+00
   28       -4.947224e-01
   29        1.645100e+00
   30       -3.492099e+00
   31       -1.148403e+00
   32       -4.613282e+00
   33        2.163569e+00
   34        1.126454e+00
   35       -4.393827e-01
   36       -2.216290e+00
   37        1.615548e+00
   38        1.462811e+00
   39        2.152750e-01
   40        1.750582e+00
   41        3.182690e+00
   42        3.321940e+00
   43        1.051947e+00
   44       -8.193794e-01
   45       -3.656713e+00
   46        1.701834e+00
   47       -4.146343e+00
   48       -1.552079e+00
   49       -3.746313e+00
   50        2.711586e+00
   51       -5.668008e+00
   52       -2.783605e+00
   53        2.664221e+00
   54       -6.254075e+00
   55        1.804392e+00
;
param X:=
    1       -1.970845e-01
    2       -8.878056e-01
    3        2.576348e-01
    4       -1.505681e+00
    5       -5.841762e-01
    6       -6.390897e-01
    7        1.236043e+00
    8        1.954749e-01
    9        1.582293e+00
   10        7.909992e-01
   11        2.451339e-01
   12       -1.244264e+00
   13        2.939216e+00
   14        9.813718e-01
   15       -3.734019e-01
   16        2.819526e-01
   17       -5.075479e-01
   18       -3.136547e-01
   19       -1.227718e+00
   20       -1.742105e+00
   21        2.143123e+00
   22       -8.107892e-01
   23       -1.433352e+00
   24       -5.866372e-01
   25        6.109277e-01
   26       -1.233323e+00
   27        1.821778e+00
   28       -4.947224e-01
   29        1.508510e-02
   30       -6.008823e-01
   31       -1.862061e-01
   32       -1.075335e+00
   33       -1.395030e-01
   34       -3.373197e-01
   35       -7.202241e-01
   36       -2.216290e+00
   37        4.745150e-02
   38        9.819247e-01
   39       -8.643492e-01
   40        3.157796e-02
   41        2.810972e+00
   42        9.937530e-02
   43        1.051947e+00
   44        1.718425e+00
   45       -1.759872e+00
   46       -1.680325e-01
   47       -1.455457e+00
   48       -1.552079e+00
   49       -3.746313e+00
   50        1.998256e-01
   51       -7.584777e-01
   52       -6.564477e-01
   53        1.554721e+00
   54        2.803256e-02
   55        1.927219e+00
;
param outliervec:=
    1    1
    2    1
    3    1
    4    1
    5    1
    6    1
    7    1
    8    1
    9    1
   10    1
   11    1
   12    1
   13    1
   14    1
   15    1
   16    1
   17    1
   18    1
   19    1
   20    0
   21    1
   22    1
   23    1
   24    1
   25    1
   26    1
   27    0
   28    0
   29    1
   30    1
   31    1
   32    1
   33    1
   34    1
   35    1
   36    0
   37    1
   38    1
   39    1
   40    1
   41    1
   42    1
   43    0
   44    1
   45    1
   46    1
   47    1
   48    0
   49    0
   50    1
   51    1
   52    1
   53    1
   54    1
   55    1
; 
param greedy_time :=         2.712817e-01
;